
# 1000 iterations
[ 94  95  98  85  37  86  91  16  93  97  13  58  40  41  75  72   2  57
  42  87  15  21  73  74  22  23  56  67  39   4  25  54  26  55  24  76
   1  50  51   9  29  80  78  79   3  77  12  68  33  81  34  35  65  66
  71  20  32  90  30  70  10  62  64  63  11  46  82   7  88  69  28  53
 101  18  52  99  96   6  92   5  59 100  43  38  14  44  61  17  84   8
  45  83  27  89  60  48  36  49  47  19  31]
992

# 2000 iterations
[ 86  16  91  93  37  85  98  95  94   2  57  15  43  38  14  44  61  17
  84  83  45   8  82   7  48  46  36  49  47  19  11  64  63  62  10  70
  30  90  32  20  66  71  65  35  34  29  80  68  12  77   3  79  78  33
  81   9  51   1  50  76  26  54  24  55  25   4  39  67  23  56  75  41
  22  74  72  73  21  40  58  13  97  87  42 100  92  59   6  96  99   5
  60  18  89  52  27 101  53  28  69  88  31]
739

# 3000 iterations
[ 86  16  91  85  93  98  37  95  94  97  87  42 100  92  59  99  96   6
   5  60  18  89  52  27 101  53  28  69  10  70  30  90  32  20  66  71
  65  35  34  78  29  80  68  77   3  79  33  81   9  51   1  50  76  12
  26  54  24  55  25   4  39  67  23  56  75  41  22  74  72  73  21  40
  58  13   2  57  15  43  14  38  44  61  17  84  83  45   8  82   7  48
  47  46  36  49  19  11  64  63  62  88  31]
707

# 4000 iterations
[ 86  16  61  17  84   5  60  83  45   8  82   7  48  47  46  36  49  19
  11  64  63  62  10  90  32  30  70  20  66  71  65  35  34  78  29  80
  68  77   3  79  33  81   9  51   1  50  76  12  26  54  24  55  25   4
  39  67  23  56  75  41  22  74  72  73  21  40  58  13   2  57  15  43
  42  14  38  44  91  85  93  98  37 100  87  97  95  92  59  99  96  94
   6  18  89  52  27 101  53  28  69  88  31]
687

# 5000 iterations
[ 86  16  61  17  84   5   6  94  96  99  59  92  95  97  87  37  98  93
  85 100  91  44  38  14  42  43  15  57   2  13  58  40  21  73  72  74
  22  41  75  56  23  67  39   4  25  55  24  29  78  34  35  65  71  66
  20  51   9  81  33  79   3  77  68  80  54  26  12  76  50   1  69  28
  53 101  27  52  89  18  60  83  45   8  82   7  48  47  46  36  49  19
  11  64  63  90  32  30  70  10  62  88  31]
660

# 6000 iterations
[ 17  84   5   6  94  96  99  59  92  95  97  87  37  98  93  85 100  91
  61  16  86  44  38  14  42  43  15  57   2  13  58  40  21  73  72  74
  22  41  75  56  23  67  39   4  25  55  54  26  12  68  80  24  29  78
  34  35  65  71  66  20  51   9  81  33  79   3  77  76  50   1  69  28
  53 101  27  52  89  18  60  83  45   8  82   7  48  47  46  36  49  19
  11  64  63  90  32  30  70  10  62  88  31]
655

# 7000 iterations
[ 17  84   5   6  94  96  99  59  92  95  97  87  37  98  93  85 100  91
  61  16  86  44  38  14  42  43  15  57   2  13  58  40  21  73  72  74
  22  41  75  56  23  67  39   4  25  55  54  26  12  68  80  24  29  78
  34  35  65  71  66  20  51   9  81  33  79   3  77  76  50   1  69  28
  53 101  27  52  89  18  60  83  45   8  82   7  48  47  46  36  49  19
  11  64  63  90  32  30  70  10  62  88  31]
655

# 8000 iterations
[ 17  84   5   6  94  96  99  59  92  95  97  87  37  98  93  85 100  91
  61  16  86  44  38  14  42  43  15  57   2  13  58  40  21  73  72  74
  22  41  75  56  23  67  39   4  25  55  54  26  12  68  80  24  29  78
  34  35  65  71  66  20  51   9  81  33  79   3  77  76  50   1  69  28
  53 101  27  52  89  18  60  83  45   8  82   7  48  47  46  36  49  19
  11  64  63  90  32  30  70  10  62  88  31]
655

# 9000 iterations
[ 17  84   5   6  94  96  99  59  92  95  97  87  37  98  93  85 100  91
  61  16  86  44  38  14  42  43  15  57   2  13  58  40  21  73  72  74
  22  41  75  56  23  67  39   4  25  55  54  26  12  68  80  24  29  78
  34  35  65  71  66  20  51   9  81  33  79   3  77  76  50   1  69  28
  53 101  27  52  89  18  60  83  45   8  82   7  48  47  46  36  49  19
  11  64  63  90  32  30  70  10  62  88  31]
655

# 10000 iterations
[ 17  84   5   6  94  96  99  59  92  95  97  87  37  98  93  85 100  91
  61  16  86  44  38  14  42  43  15  57   2  13  58  40  21  73  72  74
  22  41  75  56  23  67  39   4  25  55  54  26  12  68  80  24  29  78
  34  35  65  71  66  20  51   9  81  33  79   3  77  76  50   1  69  28
  53 101  27  52  89  18  60  83  45   8  82   7  48  47  46  36  49  19
  11  64  63  90  32  30  70  10  62  88  31]
655
